23208
24244
24752
24752
24752
24752
24752
24752
24752
24752
24752
24752
24752
24752
24752
24752
24752
24752
24752
24752
24752
24752
24752
24770
24770
24770
24770
24770
24770
24770
24770
24770
24770
24816
24816
24816
24816
24816
24816
24816
24816
24816
24816
24816
24816
24816
24816
24816
24816
24816
24816
24816
24816
24816
24816
24834
24834
24834
24834
24834
24834
24834
24834
24834
24834
24834
24834
24834
24880
24880
24880
24880
24880
24880
24880
24880
24880
24880
24880
24880
24880
24880
24880
24880
24880
24880
24880
24880
24880
24880
24880
24880
24880
24880
24880
24880
24880
24880
24880
